; MLOAD DUP1 MLOAD POP POP => POP
(set-option :produce-proofs true)
; 
(set-info :status unknown)
(declare-fun storage_t ((_ BitVec 256) (_ BitVec 256) (_ BitVec 256) Int (_ BitVec 256)) (_ BitVec 256))
(declare-fun storage_s ((_ BitVec 256) (_ BitVec 256) (_ BitVec 256) Int (_ BitVec 256)) (_ BitVec 256))
(declare-fun exc_halt_t (Int) Bool)
(declare-fun exc_halt_s (Int) Bool)
(declare-fun sc_t (Int) (_ BitVec 6))
(declare-fun stack_t ((_ BitVec 256) (_ BitVec 256) (_ BitVec 256) Int (_ BitVec 6)) (_ BitVec 256))
(declare-fun stack_s ((_ BitVec 256) (_ BitVec 256) (_ BitVec 256) Int (_ BitVec 6)) (_ BitVec 256))
(declare-fun sc_s (Int) (_ BitVec 6))
(declare-fun used_gas_t ((_ BitVec 256) (_ BitVec 256) (_ BitVec 256) Int) Int)
(declare-fun used_gas_s ((_ BitVec 256) (_ BitVec 256) (_ BitVec 256) Int) Int)
(declare-fun f_MLOAD ((_ BitVec 256) (_ BitVec 256) (_ BitVec 256) (_ BitVec 256)) (_ BitVec 256))
(assert
 (exists ((x_0 (_ BitVec 256)) (x_MLOAD_0 (_ BitVec 256)) (x_MLOAD_1 (_ BitVec 256)) )(let (($x11177 (forall ((w (_ BitVec 256)) )(let ((?x6835 (storage_t x_0 x_MLOAD_0 x_MLOAD_1 1 w)))
 (let ((?x2855 (storage_s x_0 x_MLOAD_0 x_MLOAD_1 5 w)))
 (= ?x2855 ?x6835))))
 ))
 (let (($x8377 (exc_halt_t 1)))
 (let (($x11317 (exc_halt_s 5)))
 (let (($x10110 (= $x11317 $x8377)))
 (let (($x2165 (forall ((n (_ BitVec 6)) )(let ((?x7154 (sc_t 1)))
 (let (($x3413 (bvsle ?x7154 n)))
 (let ((?x6257 (stack_t x_0 x_MLOAD_0 x_MLOAD_1 1 n)))
 (let ((?x7441 (stack_s x_0 x_MLOAD_0 x_MLOAD_1 5 n)))
 (let (($x121 (= ?x7441 ?x6257)))
 (or $x121 $x3413)))))))
 ))
 (let ((?x7154 (sc_t 1)))
 (let ((?x4319 (sc_s 5)))
 (let (($x10668 (= ?x4319 ?x7154)))
 (let ((?x9715 (used_gas_t x_0 x_MLOAD_0 x_MLOAD_1 0)))
 (let ((?x6693 (used_gas_s x_0 x_MLOAD_0 x_MLOAD_1 0)))
 (let (($x9266 (= ?x6693 ?x9715)))
 (let (($x192 (forall ((w (_ BitVec 256)) )(let ((?x1976 (storage_t x_0 x_MLOAD_0 x_MLOAD_1 0 w)))
 (let ((?x2672 (storage_s x_0 x_MLOAD_0 x_MLOAD_1 0 w)))
 (= ?x2672 ?x1976))))
 ))
 (let (($x56 (exc_halt_t 0)))
 (let (($x57 (exc_halt_s 0)))
 (let (($x58 (= $x57 $x56)))
 (let (($x80 (forall ((n (_ BitVec 6)) )(let ((?x63 (sc_t 0)))
 (let (($x7673 (bvsle ?x63 n)))
 (let ((?x8040 (stack_t x_0 x_MLOAD_0 x_MLOAD_1 0 n)))
 (let ((?x4465 (stack_s x_0 x_MLOAD_0 x_MLOAD_1 0 n)))
 (let (($x330 (= ?x4465 ?x8040)))
 (or $x330 $x7673)))))))
 ))
 (let ((?x63 (sc_t 0)))
 (let ((?x72 (sc_s 0)))
 (let (($x73 (= ?x72 ?x63)))
 (let (($x11429 (forall ((w (_ BitVec 256)) )(let ((?x1976 (storage_t x_0 x_MLOAD_0 x_MLOAD_1 0 w)))
 (let ((?x6835 (storage_t x_0 x_MLOAD_0 x_MLOAD_1 1 w)))
 (= ?x6835 ?x1976))))
 ))
 (let (($x7181 (forall ((n (_ BitVec 6)) )(let ((?x8040 (stack_t x_0 x_MLOAD_0 x_MLOAD_1 0 n)))
 (let ((?x6257 (stack_t x_0 x_MLOAD_0 x_MLOAD_1 1 n)))
 (let (($x1845 (= ?x6257 ?x8040)))
 (or $x1845 (bvsle (bvadd (_ bv63 6) (sc_t 0)) n))))))
 ))
 (let (($x2650 (= $x11317 (or (exc_halt_s 4) (not (bvsle (_ bv0 6) (bvadd (_ bv63 6) (sc_s 4))))))))
 (let (($x6570 (forall ((w (_ BitVec 256)) )(let ((?x3881 (storage_s x_0 x_MLOAD_0 x_MLOAD_1 4 w)))
 (let ((?x2855 (storage_s x_0 x_MLOAD_0 x_MLOAD_1 5 w)))
 (= ?x2855 ?x3881))))
 ))
 (let (($x2827 (forall ((n (_ BitVec 6)) )(let ((?x1159 (stack_s x_0 x_MLOAD_0 x_MLOAD_1 4 n)))
 (let ((?x7441 (stack_s x_0 x_MLOAD_0 x_MLOAD_1 5 n)))
 (let (($x3999 (= ?x7441 ?x1159)))
 (let ((?x4305 (sc_s 4)))
 (let ((?x11664 (bvadd (_ bv63 6) ?x4305)))
 (let (($x1123 (bvsle ?x11664 n)))
 (or $x1123 $x3999))))))))
 ))
 (let ((?x4305 (sc_s 4)))
 (let ((?x11664 (bvadd (_ bv63 6) ?x4305)))
 (let (($x1807 (= ?x4319 ?x11664)))
 (let ((?x5055 (used_gas_s x_0 x_MLOAD_0 x_MLOAD_1 5)))
 (let (($x7172 (exc_halt_s 4)))
 (let (($x8322 (= $x7172 (or (exc_halt_s 3) (not (bvsle (_ bv0 6) (bvadd (_ bv63 6) (sc_s 3))))))))
 (let (($x6378 (forall ((w (_ BitVec 256)) )(let ((?x8054 (storage_s x_0 x_MLOAD_0 x_MLOAD_1 3 w)))
 (let ((?x3881 (storage_s x_0 x_MLOAD_0 x_MLOAD_1 4 w)))
 (= ?x3881 ?x8054))))
 ))
 (let (($x6198 (forall ((n (_ BitVec 6)) )(let ((?x275 (sc_s 3)))
 (let ((?x1344 (bvadd (_ bv63 6) ?x275)))
 (let (($x11157 (bvsle ?x1344 n)))
 (let ((?x6734 (stack_s x_0 x_MLOAD_0 x_MLOAD_1 3 n)))
 (let ((?x1159 (stack_s x_0 x_MLOAD_0 x_MLOAD_1 4 n)))
 (let (($x4994 (= ?x1159 ?x6734)))
 (or $x4994 $x11157))))))))
 ))
 (let ((?x275 (sc_s 3)))
 (let ((?x1344 (bvadd (_ bv63 6) ?x275)))
 (let (($x1244 (= ?x4305 ?x1344)))
 (let ((?x2039 (used_gas_s x_0 x_MLOAD_0 x_MLOAD_1 4)))
 (let (($x292 (exc_halt_s 3)))
 (let (($x3936 (= $x292 (or (exc_halt_s 2) (not (bvsle (_ bv0 6) (bvadd (_ bv63 6) (sc_s 2))))))))
 (let (($x705 (forall ((w (_ BitVec 256)) )(let ((?x4839 (storage_s x_0 x_MLOAD_0 x_MLOAD_1 2 w)))
 (let ((?x8054 (storage_s x_0 x_MLOAD_0 x_MLOAD_1 3 w)))
 (= ?x8054 ?x4839))))
 ))
 (let (($x11032 (forall ((n (_ BitVec 6)) )(let ((?x3599 (stack_s x_0 x_MLOAD_0 x_MLOAD_1 2 n)))
 (let ((?x6734 (stack_s x_0 x_MLOAD_0 x_MLOAD_1 3 n)))
 (let (($x7903 (= ?x6734 ?x3599)))
 (or (bvsle (bvadd (_ bv63 6) (sc_s 2)) n) $x7903)))))
 ))
 (let ((?x218 (sc_s 2)))
 (let (($x8219 (= ?x275 ?x218)))
 (let ((?x10820 (used_gas_s x_0 x_MLOAD_0 x_MLOAD_1 3)))
 (let (($x1014 (= ?x10820 (+ 3 (used_gas_s x_0 x_MLOAD_0 x_MLOAD_1 2)))))
 (let ((?x2158 (bvadd (_ bv63 6) ?x218)))
 (let ((?x5697 (stack_s x_0 x_MLOAD_0 x_MLOAD_1 2 ?x2158)))
 (let ((?x10424 (stack_s x_0 x_MLOAD_0 x_MLOAD_1 3 ?x1344)))
 (let (($x6759 (not (= ((_ extract 6 6) (bvadd (_ bv1 7) (concat (_ bv0 1) (sc_s 1)))) (_ bv0 1)))))
 (let (($x2932 (not (bvsle (_ bv0 6) (bvadd (_ bv63 6) (sc_s 1))))))
 (let (($x189 (exc_halt_s 1)))
 (let (($x247 (exc_halt_s 2)))
 (let (($x9964 (forall ((w (_ BitVec 256)) )(let ((?x7571 (storage_s x_0 x_MLOAD_0 x_MLOAD_1 1 w)))
 (let ((?x4839 (storage_s x_0 x_MLOAD_0 x_MLOAD_1 2 w)))
 (= ?x4839 ?x7571))))
 ))
 (let (($x9054 (forall ((n (_ BitVec 6)) )(let ((?x154 (sc_s 1)))
 (let ((?x174 (bvadd (_ bv63 6) ?x154)))
 (let (($x7569 (bvsle ?x174 n)))
 (let ((?x7675 (stack_s x_0 x_MLOAD_0 x_MLOAD_1 1 n)))
 (let ((?x3599 (stack_s x_0 x_MLOAD_0 x_MLOAD_1 2 n)))
 (let (($x1424 (= ?x3599 ?x7675)))
 (or $x1424 $x7569))))))))
 ))
 (let (($x6266 (= ?x218 (bvadd (_ bv1 6) (sc_s 1)))))
 (let ((?x9457 (used_gas_s x_0 x_MLOAD_0 x_MLOAD_1 2)))
 (let (($x449 (= ?x9457 (+ 3 (used_gas_s x_0 x_MLOAD_0 x_MLOAD_1 1)))))
 (let ((?x154 (sc_s 1)))
 (let ((?x174 (bvadd (_ bv63 6) ?x154)))
 (let ((?x1665 (stack_s x_0 x_MLOAD_0 x_MLOAD_1 1 ?x174)))
 (let (($x3611 (= (stack_s x_0 x_MLOAD_0 x_MLOAD_1 2 ?x174) ?x1665)))
 (let (($x1074 (= $x189 (or $x57 (not (bvsle (_ bv0 6) (bvadd (_ bv63 6) ?x72)))))))
 (let (($x759 (forall ((w (_ BitVec 256)) )(let ((?x2672 (storage_s x_0 x_MLOAD_0 x_MLOAD_1 0 w)))
 (let ((?x7571 (storage_s x_0 x_MLOAD_0 x_MLOAD_1 1 w)))
 (= ?x7571 ?x2672))))
 ))
 (let (($x4557 (forall ((n (_ BitVec 6)) )(let ((?x4465 (stack_s x_0 x_MLOAD_0 x_MLOAD_1 0 n)))
 (let ((?x7675 (stack_s x_0 x_MLOAD_0 x_MLOAD_1 1 n)))
 (let (($x6355 (= ?x7675 ?x4465)))
 (or $x6355 (bvsle (bvadd (_ bv63 6) (sc_s 0)) n))))))
 ))
 (let (($x10588 (= ?x154 ?x72)))
 (let ((?x578 (used_gas_s x_0 x_MLOAD_0 x_MLOAD_1 1)))
 (let (($x9668 (= ?x578 (+ 3 ?x6693))))
 (let ((?x8800 (bvadd (_ bv63 6) ?x72)))
 (let ((?x3379 (stack_s x_0 x_MLOAD_0 x_MLOAD_1 0 ?x8800)))
 (let (($x9383 (forall ((w0 (_ BitVec 256)) )(let ((?x8597 (ite (= (stack_s x_0 x_MLOAD_0 x_MLOAD_1 2 (bvadd (_ bv63 6) (sc_s 2))) w0) x_MLOAD_1 (_ bv0 256))))
 (let ((?x5892 (ite (= (stack_s x_0 x_MLOAD_0 x_MLOAD_1 0 (bvadd (_ bv63 6) (sc_s 0))) w0) x_MLOAD_0 ?x8597)))
 (let ((?x7939 (f_MLOAD x_0 x_MLOAD_0 x_MLOAD_1 w0)))
 (= ?x7939 ?x5892)))))
 ))
 (let (($x4876 (forall ((w (_ BitVec 256)) )(let ((?x2672 (storage_s x_0 x_MLOAD_0 x_MLOAD_1 0 w)))
 (= ?x2672 (_ bv0 256))))
 ))
 (let (($x8681 (= ?x6693 0)))
 (let (($x7303 (not $x57)))
 (let (($x8624 (= (stack_s x_0 x_MLOAD_0 x_MLOAD_1 0 (_ bv0 6)) x_0)))
 (let (($x7315 (= ?x72 (_ bv1 6))))
 (and $x7315 $x8624 $x7303 $x8681 $x4876 $x9383 (= ?x1665 (f_MLOAD x_0 x_MLOAD_0 x_MLOAD_1 ?x3379)) $x9668 $x10588 $x4557 $x759 $x1074 (= ?x5697 ?x1665) $x3611 $x449 $x6266 $x9054 $x9964 (= $x247 (or $x189 $x2932 $x6759)) (= ?x10424 (f_MLOAD x_0 x_MLOAD_0 x_MLOAD_1 ?x5697)) $x1014 $x8219 $x11032 $x705 $x3936 (= ?x2039 (+ 2 ?x10820)) $x1244 $x6198 $x6378 $x8322 (= ?x5055 (+ 2 ?x2039)) $x1807 $x2827 $x6570 $x2650 (= (used_gas_t x_0 x_MLOAD_0 x_MLOAD_1 1) (+ 2 ?x9715)) (= ?x7154 (bvadd (_ bv63 6) ?x63)) $x7181 $x11429 (= $x8377 (or $x56 (not (bvsle (_ bv0 6) (bvadd (_ bv63 6) ?x63))))) $x73 $x80 $x58 $x192 $x9266 (not (and $x10668 $x2165 $x10110 $x11177))))))))))))))))))))))))))))))))))))))))))))))))))))))))))))))))))))))))))))))
 )
(check-sat)
(get-proof)
